data/solutions/recovery/wellformed/intermediate/binding/wellformed_intermediate_instance84/71.sol
Elapsed time: 0.16
Upper bound: 190656.0
Planning weighted value: 11980344152.0
C[0]=190656.0
C[1]=189547.0
C[2]=187332.0
C[3]=185675.0
C[4]=185602.0
C[5]=176828.0
C[6]=172231.0
C[7]=152416.0
C[8]=152309.0
C[9]=135452.0
C[10]=126142.0
C[11]=119865.0
C[12]=110693.0
C[13]=110170.0
C[14]=0.0
C[15]=0.0
y[0]=5
y[1]=3
y[2]=7
y[3]=1
y[4]=6
y[5]=8
y[6]=8
y[7]=5
y[8]=13
y[9]=6
y[10]=7
y[11]=2
y[12]=13
y[13]=4
y[14]=2
y[15]=0
y[16]=9
y[17]=11
y[18]=12
y[19]=7
y[20]=12
y[21]=3
y[22]=9
y[23]=12
y[24]=12
y[25]=3
y[26]=5
y[27]=11
y[28]=3
y[29]=4
y[30]=2
y[31]=5
y[32]=13
y[33]=3
y[34]=4
y[35]=0
y[36]=2
y[37]=8
y[38]=2
y[39]=7
y[40]=3
y[41]=12
y[42]=8
y[43]=9
y[44]=2
y[45]=4
y[46]=0
y[47]=11
y[48]=4
y[49]=5
y[50]=1
y[51]=4
y[52]=6
y[53]=3
y[54]=0
y[55]=6
y[56]=4
y[57]=13
y[58]=0
y[59]=10
y[60]=12
y[61]=13
y[62]=3
y[63]=12
y[64]=9
y[65]=6
y[66]=10
y[67]=10
y[68]=2
y[69]=12
y[70]=11
y[71]=13
y[72]=12
y[73]=0
y[74]=1
y[75]=3
y[76]=7
y[77]=1
y[78]=12
y[79]=0
y[80]=10
y[81]=13
y[82]=11
y[83]=5
y[84]=5
y[85]=7
y[86]=12
y[87]=3
y[88]=1
y[89]=1
y[90]=12
y[91]=11
y[92]=3
y[93]=12
y[94]=0
y[95]=8
y[96]=2
y[97]=0
y[98]=4
y[99]=12
y[100]=1
y[101]=13
y[102]=7
y[103]=7
y[104]=0
y[105]=7
y[106]=9
y[107]=9
y[108]=11
y[109]=1
y[110]=13
y[111]=8
y[112]=13
y[113]=10
y[114]=4
y[115]=0
y[116]=1
y[117]=5
y[118]=12
y[119]=9
y[120]=4
y[121]=13
y[122]=2
y[123]=7
y[124]=7
y[125]=6
y[126]=3
y[127]=8
y[128]=1
y[129]=0
y[130]=8
y[131]=7
y[132]=1
y[133]=9
y[134]=3
y[135]=5
y[136]=6
y[137]=8
y[138]=13
y[139]=6
y[140]=4
y[141]=6
y[142]=0
y[143]=8
y[144]=10
y[145]=6
y[146]=10
y[147]=3
y[148]=8
y[149]=9
y[150]=1
y[151]=12
y[152]=3
y[153]=6
y[154]=4
y[155]=9
y[156]=12
y[157]=6
y[158]=7
y[159]=1
y[160]=12
y[161]=5
y[162]=3
y[163]=0
y[164]=3
y[165]=8
y[166]=4
y[167]=4
y[168]=2
y[169]=5
y[170]=12
y[171]=9
y[172]=2
y[173]=3
y[174]=11
y[175]=13
y[176]=11
y[177]=10
y[178]=5
y[179]=4
y[180]=2
y[181]=10
y[182]=2
y[183]=1
y[184]=8
y[185]=6
y[186]=10
y[187]=4
y[188]=0
y[189]=4
y[190]=10
y[191]=4
y[192]=6
y[193]=10
y[194]=11
y[195]=1
y[196]=9
y[197]=3
y[198]=12
y[199]=7
y[200]=1
y[201]=11
y[202]=4
y[203]=7
y[204]=4
y[205]=7
y[206]=2
y[207]=10
y[208]=8
y[209]=4
y[210]=8
y[211]=5
y[212]=9
y[213]=5
