data/solutions/recovery/wellformed/intermediate/binding/wellformed_intermediate_instance84/71.log

Log started (V12.6.3.0) Fri Apr 20 21:53:31 2018

New value for default parallel thread count: 1

Problem '/tmp/tmppEtGxR.pyomo.lp' read.
Read time = 0.08 sec. (7.75 ticks)

Problem name         : /tmp/tmppEtGxR.pyomo.lp
Objective sense      : Minimize
Variables            :    3442  [Nneg: 1,  Binary: 3424,  General Integer: 17]
Objective nonzeros   :       1
Linear constraints   :     463  [Less: 230,  Equal: 233]
  Nonzeros           :  572157
  RHS nonzeros       :     215

Variables            : Min LB: 0.000000         Max UB: 1.000000       
Objective nonzeros   : Min   : 1.000000         Max   : 1.000000       
Linear constraints   :
  Nonzeros           : Min   : 1.000000         Max   : 19973.00       
  RHS nonzeros       : Min   : 1.000000         Max   : 1.000000       
Tried aggregator 2 times.
MIP Presolve eliminated 398 rows and 2909 columns.
Aggregator did 14 substitutions.
Reduced MIP has 51 rows, 519 columns, and 1050 nonzeros.
Reduced MIP has 518 binaries, 1 generals, 0 SOSs, and 0 indicators.
Presolve time = 0.02 sec. (36.36 ticks)
Found incumbent of value 661750.000000 after 0.04 sec. (49.82 ticks)
Probing time = 0.00 sec. (0.61 ticks)
Tried aggregator 1 time.
Reduced MIP has 51 rows, 519 columns, and 1050 nonzeros.
Reduced MIP has 518 binaries, 1 generals, 0 SOSs, and 0 indicators.
Presolve time = 0.00 sec. (0.84 ticks)
Probing time = 0.00 sec. (0.61 ticks)
Clique table members: 37.
MIP emphasis: balance optimality and feasibility.
MIP search method: dynamic search.
Parallel mode: none, using 1 thread.
Root relaxation solution time = 0.00 sec. (0.82 ticks)

        Nodes                                         Cuts/
   Node  Left     Objective  IInf  Best Integer    Best Bound    ItCnt     Gap

*     0+    0                       661750.0000   190656.0000            71.19%
      0     0   190656.0000    10   661750.0000   190656.0000       70   71.19%
*     0+    0                       190656.0000   190656.0000             0.00%
      0     0        cutoff         190656.0000   190656.0000       70    0.00%
Elapsed time = 0.05 sec. (53.53 ticks, tree = 0.01 MB, solutions = 2)

Root node processing (before b&c):
  Real time             =    0.05 sec. (53.65 ticks)
Sequential b&c:
  Real time             =    0.00 sec. (0.00 ticks)
                          ------------
Total (root+branch&cut) =    0.05 sec. (53.65 ticks)

Solution pool: 2 solutions saved.

MIP - Integer optimal solution:  Objective =  1.9065600000e+05
Solution time =    0.05 sec.  Iterations = 70  Nodes = 0
Deterministic time = 53.66 ticks  (1121.81 ticks/sec)


Incumbent solution written to file '/tmp/tmpySfIkc.cplex.sol'.
